15 40
25
7 12 0 7
7 7 0 0
1 7 14 33
1 5 14 28
2 3 13 7
2 6 12 34
2 7 13 0
2 5 12 29
1 3 14 25
1 6 14 19
6 12 0 28
6 9 0 19
2 12 12 17
2 7 12 10
3 10 10 0
1 4 14 15
1 5 14 10
3 16 9 24
3 5 9 19
2 4 10 15
2 5 10 10
3 10 7 9
3 9 7 0
3 16 6 24
3 5 6 19
